NAME          
ROWS
 N  OBJ
 L  c1
 L  c2
 L  c3
 L  c4
 L  c5
COLUMNS
    MARKER    'MARKER'                 'INTORG'
    x[1]      c1        392
    x[1]      c2        26
    x[1]      c3        399
    x[1]      c4        559
    x[1]      c5        53
    x[1]      OBJ       -28
    x[2]      c1        557
    x[2]      c2        502
    x[2]      c3        101
    x[2]      c4        402
    x[2]      c5        24
    x[2]      OBJ       -926
    x[3]      c1        145
    x[3]      c2        619
    x[3]      c3        894
    x[3]      c4        899
    x[3]      c5        484
    x[3]      OBJ       -605
    x[4]      c1        437
    x[4]      c2        581
    x[4]      c3        221
    x[4]      c4        483
    x[4]      c5        951
    x[4]      OBJ       -135
    x[5]      c1        521
    x[5]      c2        76
    x[5]      c3        469
    x[5]      c4        376
    x[5]      c5        966
    x[5]      OBJ       -845
    x[6]      c1        977
    x[6]      c2        710
    x[6]      c3        765
    x[6]      c4        915
    x[6]      c5        378
    x[6]      OBJ       -619
    x[7]      c1        30
    x[7]      c2        352
    x[7]      c3        194
    x[7]      c4        280
    x[7]      c5        582
    x[7]      OBJ       -823
    x[8]      c1        448
    x[8]      c2        908
    x[8]      c3        855
    x[8]      c4        149
    x[8]      c5        796
    x[8]      OBJ       -926
    x[9]      c1        991
    x[9]      c2        300
    x[9]      c3        459
    x[9]      c4        44
    x[9]      c5        312
    x[9]      OBJ       -314
    x[10]     c1        926
    x[10]     c2        542
    x[10]     c3        736
    x[10]     c4        121
    x[10]     c5        496
    x[10]     OBJ       -83
RHS
    rhs       c1        2712
    rhs       c2        2308
    rhs       c3        2546
    rhs       c4        2114
    rhs       c5        2521
RANGES
BOUNDS
 BV bounds    x[1]
 BV bounds    x[2]
 BV bounds    x[3]
 BV bounds    x[4]
 BV bounds    x[5]
 BV bounds    x[6]
 BV bounds    x[7]
 BV bounds    x[8]
 BV bounds    x[9]
 BV bounds    x[10]
ENDATA
